data/processed_heuristic-threshold/instances/1/6/ds_528_courier_979/pairwise.tsp
NAME: ds_528_courier_979
TYPE: TSP
COMMENT: nil
DIMENSION: 7
EDGE_WEIGHT_TYPE: EXPLICIT
EDGE_WEIGHT_FORMAT: FULL_MATRIX
EDGE_WEIGHT_SECTION
9999 1452 1245 1455 1242 1867 4 
1452 9999 603 567 596 1457 1451 
1245 603 9999 215 8 1948 1245 
1455 567 215 9999 216 1997 1455 
1242 596 8 216 9999 1940 1242 
1867 1457 1948 1997 1940 9999 1863 
4 1451 1245 1455 1242 1863 9999 
