data/processed_heuristic-threshold/instances/1/6/ds_528_courier_979/pairwise.sol
7
0 6 5 1 3 2 4 
